experiment/data/lkh-res/Vrp-Set-A-n45/Vrp-Set-A-n45-lkh/0.lkh1.vrp
NAME : 0
COMMENT : CVRP Instance
TYPE : CVRP
DIMENSION : 45
EDGE_WEIGHT_TYPE : EUC_2D
CAPACITY : 100
NODE_COORD_SECTION
1	3100	7300
2	1100	6700
3	5200	9600
4	8100	2900
5	9700	6200
6	7100	500
7	600	5600
8	4800	5000
9	9100	1700
10	4900	6800
11	8500	2900
12	1100	1600
13	7400	9800
14	5600	3700
15	1300	8100
16	6600	8000
17	9600	5500
18	3600	1700
19	3200	2300
20	600	1300
21	6400	3000
22	8700	500
23	7500	6100
24	4000	7200
25	100	4400
26	6000	9500
27	2700	4900
28	1500	3300
29	4600	5300
30	2800	4300
31	300	900
32	100	10000
33	5300	4600
34	9800	800
35	600	2500
36	700	8100
37	9600	8800
38	200	3500
39	3200	9400
40	9500	9400
41	900	1100
42	9600	1600
43	9000	6800
44	3300	3100
45	600	5900
DEMAND_SECTION
1	0
2	19
3	2
4	12
5	20
6	6
7	17
8	8
9	14
10	2
11	8
12	5
13	7
14	22
15	14
16	17
17	23
18	15
19	21
20	2
21	24
22	10
23	20
24	6
25	21
26	10
27	6
28	13
29	21
30	24
31	11
32	16
33	8
34	11
35	11
36	22
37	17
38	22
39	17
40	8
41	23
42	5
43	3
44	18
45	12
DEPOT_SECTION
1
-1
EOF
