experiment/data/lkh-res/Vrp-Set-A-n45/Vrp-Set-A-n45-lkh/0.lkh1.log
PARAMETER_FILE = baseline_results/cvrp_lkh/Vrp-Set-A-n45/Vrp-Set-A-n45-lkh/0.lkh1.par
Reading PROBLEM_FILE: "baseline_results/cvrp_lkh/Vrp-Set-A-n45/Vrp-Set-A-n45-lkh/0.lkh1.vrp" ... done
ASCENT_CANDIDATES = 44
BACKBONE_TRIALS = 0
BACKTRACKING = NO
# BWTSP =
# CANDIDATE_FILE =
CANDIDATE_SET_TYPE = ALPHA
# DISTANCE =
DEPOT = 1
# EDGE_FILE =
EXCESS = 0.0222222
EXTERNAL_SALESMEN = 0
EXTRA_CANDIDATES = 0 
EXTRA_CANDIDATE_SET_TYPE = QUADRANT
GAIN23 = NO
GAIN_CRITERION = YES
INITIAL_PERIOD = 100
INITIAL_STEP_SIZE = 1
INITIAL_TOUR_ALGORITHM = WALK
# INITIAL_TOUR_FILE = 
INITIAL_TOUR_FRACTION = 1.000
# INPUT_TOUR_FILE = 
KICK_TYPE = 4
KICKS = 1
# MAX_BREADTH =
MAKESPAN = NO
MAX_CANDIDATES = 5 
MAX_SWAPS = 0
MAX_TRIALS = 10000
# MERGE_TOUR_FILE =
MOVE_TYPE = 5 SPECIAL
MTSP_MIN_SIZE = 1
MTSP_MAX_SIZE = 44
# MTSP_SOLUTION_FILE = 
# NONSEQUENTIAL_MOVE_TYPE = 5
# OPTIMUM =
OUTPUT_TOUR_FILE = baseline_results/cvrp_lkh/Vrp-Set-A-n45/Vrp-Set-A-n45-lkh/0.lkh1.tour
PATCHING_A = 1 
PATCHING_C = 0 
# PI_FILE = 
POPMUSIC_INITIAL_TOUR = NO
POPMUSIC_MAX_NEIGHBORS = 5
POPMUSIC_SAMPLE_SIZE = 10
POPMUSIC_SOLUTIONS = 50
POPMUSIC_TRIALS = 1
POPULATION_SIZE = 10
PRECISION = 100
PROBLEM_FILE = baseline_results/cvrp_lkh/Vrp-Set-A-n45/Vrp-Set-A-n45-lkh/0.lkh1.vrp
RECOMBINATION = IPT
RESTRICTED_SEARCH = YES
RUNS = 1
SALESMEN = 6
SCALE = 1
SEED = 1234
# SINTEF_SOLUTION_FILE = 
STOP_AT_OPTIMUM = YES
SUBGRADIENT = YES
# SUBPROBLEM_SIZE =
# SUBPROBLEM_TOUR_FILE = 
SUBSEQUENT_MOVE_TYPE = 5 SPECIAL
SUBSEQUENT_PATCHING = YES
# TIME_LIMIT =
# TOTAL_TIME_LIMIT =
# TOUR_FILE = 
TRACE_LEVEL = 1
VEHICLES = 6

Lower bound = 70775.7, Ascent time = 0.01 sec.
Cand.min = 5, Cand.avg = 5.0, Cand.max = 5
Preprocessing time = 0.01 sec.
* 1: Cost = 0_117145, Time = 0.01 sec. 
Writing OUTPUT_TOUR_FILE: "baseline_results/cvrp_lkh/Vrp-Set-A-n45/Vrp-Set-A-n45-lkh/0.lkh1.tour" ... done
* 2: Cost = 0_110524, Time = 0.02 sec. 
Writing OUTPUT_TOUR_FILE: "baseline_results/cvrp_lkh/Vrp-Set-A-n45/Vrp-Set-A-n45-lkh/0.lkh1.tour" ... done
* 4: Cost = 0_107242, Time = 0.03 sec. 
Writing OUTPUT_TOUR_FILE: "baseline_results/cvrp_lkh/Vrp-Set-A-n45/Vrp-Set-A-n45-lkh/0.lkh1.tour" ... done
* 9: Cost = 0_101052, Time = 0.05 sec. 
Writing OUTPUT_TOUR_FILE: "baseline_results/cvrp_lkh/Vrp-Set-A-n45/Vrp-Set-A-n45-lkh/0.lkh1.tour" ... done
* 19: Cost = 0_100706, Time = 0.10 sec. 
Writing OUTPUT_TOUR_FILE: "baseline_results/cvrp_lkh/Vrp-Set-A-n45/Vrp-Set-A-n45-lkh/0.lkh1.tour" ... done
* 20: Cost = 0_98388, Time = 0.10 sec. 
Writing OUTPUT_TOUR_FILE: "baseline_results/cvrp_lkh/Vrp-Set-A-n45/Vrp-Set-A-n45-lkh/0.lkh1.tour" ... done
* 38: Cost = 0_98184, Time = 0.16 sec. 
Writing OUTPUT_TOUR_FILE: "baseline_results/cvrp_lkh/Vrp-Set-A-n45/Vrp-Set-A-n45-lkh/0.lkh1.tour" ... done
* 63: Cost = 0_97725, Time = 0.23 sec. 
Writing OUTPUT_TOUR_FILE: "baseline_results/cvrp_lkh/Vrp-Set-A-n45/Vrp-Set-A-n45-lkh/0.lkh1.tour" ... done
* 69: Cost = 0_97572, Time = 0.25 sec. 
Writing OUTPUT_TOUR_FILE: "baseline_results/cvrp_lkh/Vrp-Set-A-n45/Vrp-Set-A-n45-lkh/0.lkh1.tour" ... done
* 84: Cost = 0_94956, Time = 0.30 sec. 
Writing OUTPUT_TOUR_FILE: "baseline_results/cvrp_lkh/Vrp-Set-A-n45/Vrp-Set-A-n45-lkh/0.lkh1.tour" ... done
* 1171: Cost = 0_94488, Time = 4.89 sec. 
Writing OUTPUT_TOUR_FILE: "baseline_results/cvrp_lkh/Vrp-Set-A-n45/Vrp-Set-A-n45-lkh/0.lkh1.tour" ... done
Population:
  1: 0_94488
Run 1: Cost = 0_94488, Time = 40.80 sec. 

Successes/Runs = 0/1 
Cost.min = 94488, Cost.avg = 94488.00, Cost.max = 94488
Gap.min = 0.0000%, Gap.avg = 0.0000%, Gap.max = 0.0000%
Penalty.min = 0, Penalty.avg = 0.00, Penalty.max = 0
Trials.min = 10000, Trials.avg = 10000.0, Trials.max = 10000
Time.min = 40.80 sec., Time.avg = 40.80 sec., Time.max = 40.80 sec.
Time.total = 40.82 sec.
  Size.min = 6, Size.max = 9, Penalty = 0
  Cost.min = 11250, Cost.max = 20498, Cost.sum = 94488
Best CVRP solution:
  Cost = 0_94488

