experiment/data/lkh-res/Vrp-Set-A-n45/Vrp-Set-A-n45-lkh/0.lkh1.tour
NAME : 0.94488.tour
COMMENT : Length = 94488
COMMENT : Found by LKH-3 [Keld Helsgaun] Tue Apr  9 00:43:08 2024
TYPE : TOUR
DIMENSION : 50
TOUR_SECTION
1
4
11
9
42
34
22
6
21
33
49
27
28
38
25
7
2
47
15
36
32
39
3
26
16
48
45
35
20
31
41
12
18
19
50
13
40
37
43
5
17
23
10
46
30
44
14
8
29
24
-1
EOF
